c A SAT instance generated from a 3-CNF formula that had 36 clauses and 9 variables
p cnf 9 36
-7 4 -9 0
-8 4 -2 0
-3 8 7 0
6 2 -1 0
8 5 -4 0
-9 -4 -8 0
4 -6 5 0
-4 -3 6 0
-1 -6 9 0
-6 -3 4 0
-7 -3 -9 0
-7 8 -2 0
-7 -9 6 0
8 6 -7 0
-7 8 6 0
3 6 -4 0
2 -5 4 0
4 7 2 0
-5 -4 3 0
-3 4 -2 0
7 9 -4 0
4 3 -9 0
-7 -3 -6 0
4 6 9 0
-1 -3 -9 0
8 3 6 0
9 -5 -2 0
-9 3 8 0
4 9 -2 0
-5 -3 1 0
-6 -2 -3 0
5 4 6 0
-1 -9 -6 0
-9 -4 1 0
2 -7 -5 0
9 2 -5 0
